10 - 10 - 275.1
10 - 20 - 314.03
10 - 30 - 369.79
40 - 10 - 155.5
40 - 20 - 187.5
40 - 30 - 278
50 - 10 - 133.5
50 - 20 - 251.5
50 - 30 - 278
40 - 10 - 258
40 - 20 - 298
40 - 30 - 168.5
50 - 10 - 215.5
50 - 20 - 250.5
50 - 30 - 288.5
40 - 10 - 312
40 - 20 - 231.5
40 - 30 - 212
40 - 10 - 199
40 - 20 - 241
40 - 30 - 162
50 - 10 - 183
50 - 20 - 201.5
50 - 30 - 160.5
40 - 10 - 181.5
40 - 20 - 187
40 - 30 - 184.5
50 - 10 - 177.5
50 - 20 - 161.5
50 - 30 - 180
